benchmarks_CP/INST_36x36/20/inst36x36_20_2.dzn
S=6;
start=[|
-1,	-1,	-1,	-1,	-1,	-1,	-1,	-1,	-1,	-1,	-1,	-1,	-1,	-1,	-1,	-1,	-1,	-1,	36,	-1,	-1,	-1,	-1,	-1,	-1,	-1,	-1,	-1,	-1,	-1,	-1,	-1,	-1,	-1,	-1,	-1|
30,	29,	-1,	-1,	-1,	-1,	20,	-1,	-1,	-1,	-1,	-1,	-1,	-1,	-1,	31,	-1,	-1,	-1,	-1,	-1,	-1,	-1,	-1,	-1,	-1,	21,	-1,	4,	-1,	-1,	-1,	-1,	-1,	-1,	32|
24,	-1,	-1,	36,	-1,	12,	-1,	-1,	7,	-1,	16,	-1,	-1,	-1,	-1,	-1,	-1,	-1,	35,	32,	-1,	-1,	-1,	-1,	-1,	-1,	-1,	-1,	-1,	-1,	17,	-1,	-1,	-1,	-1,	-1|
-1,	-1,	-1,	-1,	-1,	-1,	-1,	-1,	-1,	-1,	-1,	-1,	-1,	-1,	24,	-1,	-1,	-1,	-1,	-1,	5,	-1,	34,	-1,	-1,	-1,	-1,	-1,	-1,	-1,	-1,	-1,	-1,	-1,	-1,	-1|
4,	-1,	25,	-1,	9,	-1,	-1,	15,	-1,	-1,	-1,	-1,	-1,	32,	11,	-1,	26,	-1,	-1,	-1,	-1,	-1,	-1,	-1,	-1,	-1,	-1,	16,	17,	-1,	-1,	-1,	29,	-1,	13,	24|
-1,	-1,	-1,	-1,	-1,	-1,	-1,	-1,	-1,	-1,	-1,	-1,	-1,	-1,	-1,	-1,	9,	7,	-1,	24,	-1,	19,	-1,	-1,	-1,	-1,	-1,	12,	-1,	-1,	35,	-1,	-1,	-1,	-1,	-1|
-1,	-1,	-1,	-1,	-1,	9,	-1,	-1,	-1,	-1,	4,	-1,	-1,	-1,	3,	-1,	-1,	-1,	-1,	-1,	29,	-1,	-1,	-1,	24,	18,	28,	11,	-1,	14,	10,	-1,	-1,	-1,	-1,	-1|
31,	35,	-1,	-1,	-1,	-1,	-1,	-1,	-1,	-1,	-1,	-1,	-1,	-1,	-1,	-1,	-1,	-1,	4,	-1,	-1,	-1,	-1,	14,	-1,	-1,	-1,	-1,	26,	-1,	-1,	-1,	-1,	-1,	-1,	-1|
-1,	-1,	-1,	-1,	-1,	19,	-1,	12,	-1,	-1,	-1,	-1,	24,	-1,	-1,	-1,	-1,	-1,	-1,	18,	-1,	13,	-1,	-1,	-1,	-1,	-1,	15,	-1,	17,	-1,	4,	31,	2,	-1,	-1|
13,	-1,	-1,	6,	1,	-1,	-1,	27,	-1,	-1,	-1,	-1,	10,	-1,	-1,	-1,	-1,	-1,	-1,	15,	-1,	-1,	-1,	-1,	-1,	21,	29,	-1,	-1,	-1,	-1,	-1,	-1,	-1,	-1,	23|
34,	11,	29,	-1,	-1,	-1,	-1,	-1,	-1,	-1,	-1,	36,	-1,	-1,	-1,	-1,	7,	-1,	12,	23,	21,	-1,	-1,	-1,	-1,	-1,	-1,	-1,	-1,	-1,	18,	-1,	-1,	-1,	-1,	-1|
-1,	-1,	16,	5,	-1,	36,	-1,	-1,	-1,	-1,	-1,	21,	-1,	-1,	-1,	-1,	11,	-1,	1,	-1,	-1,	-1,	-1,	-1,	-1,	-1,	-1,	7,	-1,	25,	32,	-1,	-1,	-1,	-1,	-1|
-1,	-1,	-1,	-1,	6,	-1,	-1,	-1,	-1,	-1,	-1,	-1,	-1,	-1,	-1,	-1,	-1,	-1,	-1,	-1,	-1,	-1,	-1,	-1,	30,	11,	33,	24,	-1,	-1,	-1,	29,	-1,	-1,	-1,	-1|
-1,	15,	5,	-1,	-1,	-1,	23,	-1,	-1,	-1,	-1,	-1,	-1,	-1,	-1,	-1,	24,	-1,	-1,	19,	-1,	35,	6,	-1,	-1,	-1,	-1,	-1,	-1,	-1,	-1,	-1,	-1,	-1,	8,	-1|
-1,	-1,	7,	-1,	-1,	-1,	-1,	-1,	-1,	-1,	8,	-1,	-1,	3,	-1,	19,	-1,	-1,	-1,	-1,	-1,	-1,	-1,	-1,	-1,	-1,	-1,	-1,	12,	-1,	2,	-1,	-1,	-1,	-1,	-1|
-1,	-1,	-1,	-1,	2,	-1,	-1,	-1,	-1,	-1,	-1,	-1,	-1,	16,	-1,	-1,	-1,	18,	-1,	-1,	-1,	-1,	-1,	-1,	-1,	-1,	-1,	-1,	20,	28,	-1,	-1,	3,	-1,	10,	22|
-1,	-1,	24,	-1,	-1,	8,	-1,	-1,	-1,	-1,	-1,	-1,	-1,	-1,	-1,	-1,	-1,	15,	-1,	-1,	-1,	-1,	30,	4,	-1,	-1,	25,	-1,	-1,	23,	20,	13,	-1,	-1,	-1,	-1|
17,	-1,	-1,	-1,	-1,	-1,	-1,	-1,	6,	34,	-1,	35,	-1,	-1,	28,	-1,	-1,	-1,	-1,	-1,	-1,	-1,	-1,	-1,	-1,	-1,	-1,	-1,	-1,	-1,	-1,	-1,	15,	-1,	-1,	11|
-1,	-1,	-1,	-1,	-1,	-1,	6,	-1,	-1,	23,	-1,	-1,	-1,	-1,	-1,	-1,	-1,	-1,	-1,	-1,	-1,	-1,	-1,	-1,	-1,	-1,	-1,	-1,	-1,	12,	-1,	10,	-1,	-1,	-1,	-1|
-1,	-1,	-1,	-1,	12,	-1,	27,	-1,	-1,	1,	15,	-1,	-1,	-1,	-1,	-1,	-1,	-1,	-1,	-1,	-1,	-1,	28,	6,	17,	-1,	-1,	-1,	25,	-1,	-1,	16,	-1,	18,	-1,	-1|
-1,	-1,	-1,	-1,	-1,	-1,	-1,	-1,	-1,	20,	33,	12,	14,	-1,	-1,	-1,	-1,	-1,	-1,	-1,	-1,	25,	-1,	27,	-1,	16,	-1,	10,	11,	-1,	-1,	-1,	-1,	-1,	-1,	-1|
-1,	-1,	-1,	33,	-1,	-1,	-1,	-1,	-1,	-1,	-1,	-1,	-1,	6,	-1,	-1,	-1,	-1,	-1,	-1,	10,	-1,	-1,	32,	-1,	-1,	-1,	-1,	15,	-1,	-1,	-1,	11,	-1,	-1,	27|
-1,	-1,	-1,	-1,	-1,	-1,	10,	22,	-1,	32,	-1,	-1,	-1,	36,	19,	-1,	-1,	-1,	-1,	-1,	-1,	-1,	-1,	-1,	-1,	-1,	-1,	-1,	-1,	33,	-1,	17,	1,	-1,	-1,	-1|
-1,	-1,	-1,	-1,	-1,	-1,	-1,	-1,	-1,	-1,	-1,	-1,	-1,	-1,	13,	-1,	-1,	-1,	-1,	-1,	15,	-1,	-1,	-1,	-1,	-1,	-1,	-1,	-1,	-1,	28,	-1,	-1,	-1,	-1,	12|
-1,	-1,	-1,	-1,	-1,	-1,	-1,	-1,	11,	5,	6,	-1,	-1,	-1,	-1,	20,	-1,	-1,	-1,	-1,	-1,	-1,	3,	-1,	-1,	-1,	-1,	-1,	13,	-1,	-1,	-1,	-1,	22,	-1,	-1|
-1,	-1,	11,	35,	-1,	-1,	-1,	-1,	27,	-1,	-1,	-1,	-1,	-1,	-1,	-1,	-1,	-1,	-1,	-1,	14,	-1,	-1,	29,	-1,	26,	-1,	-1,	-1,	-1,	-1,	-1,	-1,	25,	2,	-1|
-1,	16,	13,	-1,	-1,	-1,	-1,	-1,	-1,	-1,	28,	-1,	7,	11,	-1,	-1,	-1,	-1,	20,	-1,	-1,	-1,	-1,	36,	-1,	-1,	-1,	-1,	-1,	-1,	33,	-1,	-1,	-1,	-1,	-1|
-1,	-1,	-1,	-1,	23,	-1,	-1,	-1,	-1,	-1,	-1,	-1,	-1,	-1,	-1,	-1,	-1,	-1,	-1,	-1,	-1,	1,	-1,	-1,	-1,	28,	-1,	14,	-1,	9,	-1,	-1,	-1,	-1,	-1,	-1|
-1,	-1,	-1,	18,	-1,	-1,	-1,	-1,	-1,	-1,	-1,	-1,	4,	14,	-1,	-1,	-1,	-1,	-1,	-1,	-1,	30,	-1,	-1,	-1,	-1,	7,	-1,	-1,	-1,	-1,	32,	-1,	8,	-1,	-1|
8,	36,	-1,	24,	-1,	-1,	-1,	-1,	14,	-1,	-1,	-1,	-1,	-1,	1,	-1,	-1,	30,	-1,	-1,	-1,	-1,	-1,	-1,	-1,	-1,	4,	20,	-1,	-1,	-1,	-1,	-1,	-1,	-1,	-1|
-1,	-1,	-1,	-1,	-1,	17,	-1,	-1,	-1,	2,	-1,	-1,	19,	-1,	-1,	-1,	31,	-1,	-1,	-1,	-1,	15,	-1,	-1,	-1,	-1,	-1,	-1,	-1,	-1,	-1,	-1,	-1,	-1,	-1,	3|
-1,	-1,	-1,	10,	-1,	-1,	32,	-1,	13,	-1,	9,	-1,	-1,	-1,	2,	-1,	-1,	22,	-1,	-1,	-1,	-1,	-1,	-1,	-1,	-1,	-1,	-1,	-1,	-1,	-1,	15,	14,	-1,	-1,	-1|
-1,	-1,	-1,	16,	-1,	-1,	-1,	-1,	-1,	-1,	-1,	-1,	27,	-1,	-1,	-1,	-1,	21,	-1,	-1,	18,	-1,	-1,	-1,	34,	-1,	-1,	-1,	-1,	-1,	29,	-1,	-1,	-1,	-1,	-1|
-1,	4,	23,	-1,	-1,	2,	33,	-1,	-1,	-1,	-1,	25,	-1,	13,	-1,	35,	-1,	-1,	-1,	-1,	-1,	28,	-1,	-1,	-1,	-1,	-1,	-1,	-1,	-1,	-1,	-1,	-1,	-1,	34,	-1|
29,	-1,	-1,	-1,	-1,	-1,	-1,	-1,	-1,	-1,	-1,	-1,	-1,	-1,	-1,	-1,	-1,	-1,	-1,	-1,	6,	-1,	-1,	13,	-1,	17,	-1,	-1,	-1,	-1,	-1,	20,	-1,	33,	-1,	-1|
-1,	-1,	-1,	-1,	-1,	-1,	29,	-1,	-1,	10,	-1,	-1,	-1,	33,	30,	-1,	-1,	-1,	21,	-1,	-1,	-1,	-1,	-1,	-1,	-1,	-1,	-1,	-1,	-1,	-1,	-1,	-1,	5,	-1,	-1|];
